DataVersion = "low-variance";
 
NbClient = 6;
NbSites = 3;
Revenues = [
  [ 91, 24, 13 ],
  [ 45, 41, 38 ],
  [ 27, 23, 96 ],
  [ 79, 21, 85 ],
  [ 64, 14, 13 ],
  [ 21, 37, 39 ],
];

CostSite = [ 3069, 3465, 1108 ];

DemandsBase = [ 45, 22, 44, 36, 24, 38 ];
DemandsLower = [ 42, 20, 41, 34, 22, 36 ];
DemandsUpper = [ 47, 23, 46, 37, 25, 39 ];

Probabilities = [ 0.2, 0.45, 0.35 ];
Capacities = [ 300, 221, 151 ];
